
%FILE DATA:	Soccer Computational Problem for MiniZinc Models	%
%AUTHOR:	Jack Wall	%
%CONTACT:  	116397063@umail.ucc.ie			%
%LAST UPDATE:	03/09/2020, 15:15:29						%
%DESCRIPTION: 	96 games played with 36 games left				%


n=12; %number of teams

%Games to play
games=[|7,9|9,4|10,8|4,10|3,5|3,1|8,7|3,10|3,6|11,10|3,7|8,3|4,1|5,7|5,8|1,9|9,8|4,7|4,6|6,7|3,8|8,1|12,9|11,9|6,2|10,4|1,8|7,11|10,3|7,2|11,5|2,8|7,8|8,10|4,5|12,8|];

%Initial points
iPoints=[18,31,24,19,17,25,13,14,21,23,27,22];

%POSITION CONSTRAINTS
% [|teamID, operator, position|...]
% operators index:
%  1 for =  operator
%  2 for >  operator
%  3 for >= operator
%  4 for <  operator
%  5 for <= operator
positionConstraints=[|2,5,1|11,5,2|];